p cnf 61 156
5 -16 0
-5 16 0
27 0
-27 0
5 7 0
-6 7 0
-5 6 -7 0
8 10 0
-9 10 0
-8 9 -10 0
-1 10 -11 0
1 -10 -11 0
-1 -10 11 0
1 10 11 0
-11 0
7 -14 0
12 -14 0
-13 -14 0
-7 -12 13 14 0
12 15 0
-7 15 0
7 -12 -15 0
15 -17 0
-16 -17 0
-15 16 17 0
1 -12 18 0
1 12 -18 0
-1 -14 18 0
-1 14 -18 0
1 -17 19 0
1 17 -19 0
-1 -6 19 0
-1 6 -19 0
21 22 0
-9 22 0
9 -21 -22 0
-20 -23 0
22 -23 0
20 -22 23 0
-2 23 -24 0
2 -23 -24 0
-2 -23 24 0
2 23 24 0
-24 0
-16 -25 0
13 -25 0
-13 16 25 0
13 -26 0
16 -26 0
-18 -26 0
-13 -16 18 26 0
2 -26 28 0
2 26 -28 0
-2 -27 28 0
-2 27 -28 0
2 -16 29 0
2 16 -29 0
-2 -25 29 0
-2 25 -29 0
-13 30 0
-18 30 0
29 30 0
13 18 -29 -30 0
19 -31 0
-7 -31 0
7 -19 31 0
-32 -34 0
-33 -34 0
32 33 34 0
-3 34 -35 0
3 -34 -35 0
-3 -34 35 0
3 34 35 0
-35 0
-28 36 0
-13 36 0
13 28 -36 0
19 -37 0
-28 -37 0
30 -37 0
-19 28 -30 37 0
3 -38 0
33 -38 0
-3 -33 38 0
3 -37 40 0
3 37 -40 0
-3 -39 40 0
-3 39 -40 0
3 -41 42 0
3 41 -42 0
-3 -36 42 0
-3 36 -42 0
9 43 0
-38 43 0
-9 38 -43 0
-4 43 -44 0
4 -43 -44 0
-4 -43 44 0
4 43 44 0
-44 0
-28 -45 0
30 -45 0
28 -30 45 0
13 -46 0
-18 -46 0
42 -46 0
-13 18 -42 46 0
4 -46 47 0
4 46 -47 0
-4 -13 47 0
-4 13 -47 0
4 -48 49 0
4 48 -49 0
-4 -45 49 0
-4 45 -49 0
31 -50 0
-19 -50 0
19 -31 50 0
-19 51 0
-50 51 0
19 50 -51 0
30 52 0
-51 52 0
-30 51 -52 0
40 -53 0
52 -53 0
-40 -52 53 0
19 -54 0
28 -54 0
-19 -28 54 0
-29 55 0
30 55 0
-54 55 0
29 -30 54 -55 0
47 -56 0
-51 -56 0
-47 51 56 0
49 57 0
-56 57 0
-49 56 -57 0
18 -58 0
-55 -58 0
-18 55 58 0
-57 59 0
-58 59 0
57 58 -59 0
30 60 0
-47 60 0
-30 47 -60 0
29 -61 0
60 -61 0
-29 -60 61 0
7 0
18 0
29 0
55 0
